benchmarks_CP/INST_36x36/55/inst36x36_55_17.dzn
S=6;
start=[|
-1,	20,	16,	24,	17,	-1,	33,	-1,	-1,	-1,	10,	12,	-1,	-1,	-1,	-1,	21,	32,	2,	14,	5,	-1,	26,	-1,	-1,	-1,	-1,	-1,	22,	-1,	4,	23,	-1,	-1,	13,	-1|
29,	31,	18,	36,	-1,	5,	-1,	1,	-1,	-1,	-1,	-1,	-1,	-1,	12,	-1,	33,	17,	23,	13,	-1,	30,	35,	-1,	16,	25,	-1,	4,	20,	32,	-1,	22,	-1,	-1,	-1,	11|
2,	32,	10,	-1,	-1,	-1,	-1,	-1,	-1,	4,	19,	-1,	11,	-1,	1,	-1,	31,	35,	12,	-1,	-1,	-1,	17,	-1,	28,	21,	23,	8,	9,	13,	-1,	18,	-1,	16,	-1,	-1|
-1,	-1,	9,	-1,	27,	30,	21,	7,	11,	16,	13,	32,	-1,	14,	2,	-1,	5,	6,	34,	29,	-1,	36,	33,	-1,	-1,	26,	-1,	-1,	10,	15,	24,	-1,	25,	12,	-1,	17|
-1,	26,	-1,	34,	-1,	33,	5,	15,	-1,	17,	-1,	-1,	-1,	16,	-1,	-1,	13,	-1,	27,	11,	32,	-1,	-1,	-1,	6,	31,	2,	-1,	14,	24,	36,	21,	28,	-1,	-1,	-1|
-1,	13,	-1,	14,	-1,	11,	26,	-1,	-1,	18,	25,	27,	-1,	29,	-1,	28,	9,	-1,	4,	-1,	19,	10,	31,	-1,	30,	-1,	12,	33,	-1,	-1,	3,	7,	2,	-1,	-1,	-1|
-1,	-1,	11,	1,	2,	19,	-1,	-1,	-1,	-1,	30,	5,	25,	21,	22,	12,	4,	8,	20,	-1,	-1,	-1,	-1,	-1,	-1,	-1,	33,	29,	35,	36,	-1,	24,	-1,	-1,	14,	-1|
33,	12,	-1,	3,	-1,	20,	24,	2,	-1,	-1,	-1,	9,	18,	10,	-1,	5,	7,	11,	21,	17,	-1,	-1,	4,	-1,	-1,	-1,	-1,	-1,	-1,	-1,	6,	27,	-1,	-1,	-1,	-1|
16,	-1,	-1,	18,	6,	7,	23,	-1,	21,	35,	-1,	31,	14,	-1,	-1,	-1,	26,	29,	30,	33,	27,	1,	8,	-1,	19,	17,	-1,	-1,	11,	20,	-1,	-1,	36,	-1,	3,	13|
-1,	21,	25,	-1,	-1,	-1,	36,	6,	10,	11,	-1,	18,	13,	-1,	-1,	-1,	-1,	-1,	7,	2,	12,	5,	-1,	-1,	-1,	4,	-1,	32,	1,	27,	-1,	33,	8,	-1,	16,	22|
24,	-1,	13,	10,	-1,	22,	29,	20,	-1,	-1,	-1,	19,	-1,	33,	-1,	36,	27,	-1,	31,	-1,	-1,	-1,	32,	34,	-1,	3,	-1,	-1,	-1,	-1,	-1,	1,	17,	4,	11,	5|
-1,	-1,	26,	-1,	-1,	-1,	-1,	-1,	-1,	14,	-1,	13,	-1,	3,	-1,	6,	16,	1,	10,	-1,	-1,	11,	-1,	-1,	2,	-1,	5,	24,	-1,	30,	-1,	-1,	-1,	-1,	12,	18|
-1,	17,	2,	26,	35,	23,	-1,	-1,	5,	28,	-1,	4,	33,	-1,	7,	1,	-1,	15,	8,	-1,	13,	16,	-1,	-1,	-1,	-1,	11,	21,	36,	3,	-1,	-1,	-1,	31,	-1,	-1|
-1,	16,	-1,	-1,	-1,	21,	10,	-1,	8,	1,	6,	-1,	24,	-1,	-1,	-1,	35,	-1,	19,	27,	2,	-1,	20,	-1,	15,	-1,	32,	-1,	30,	33,	-1,	-1,	-1,	-1,	-1,	29|
9,	1,	-1,	-1,	5,	24,	35,	29,	-1,	2,	36,	17,	-1,	8,	27,	11,	-1,	-1,	28,	-1,	-1,	-1,	30,	-1,	23,	18,	-1,	6,	-1,	4,	-1,	-1,	33,	10,	-1,	20|
27,	15,	33,	4,	13,	10,	-1,	-1,	-1,	34,	20,	25,	-1,	26,	-1,	-1,	32,	-1,	36,	-1,	-1,	-1,	-1,	-1,	-1,	19,	1,	16,	28,	2,	7,	-1,	11,	-1,	22,	-1|
14,	-1,	28,	-1,	-1,	-1,	27,	-1,	15,	-1,	16,	30,	-1,	2,	29,	-1,	-1,	21,	33,	22,	11,	-1,	18,	4,	-1,	35,	10,	13,	-1,	-1,	23,	-1,	-1,	-1,	1,	36|
-1,	18,	29,	-1,	-1,	-1,	-1,	11,	31,	33,	14,	-1,	16,	23,	-1,	-1,	-1,	28,	3,	10,	-1,	-1,	1,	-1,	5,	27,	-1,	22,	26,	17,	-1,	2,	15,	35,	19,	-1|
11,	-1,	24,	28,	26,	-1,	-1,	31,	-1,	36,	33,	20,	22,	12,	6,	-1,	-1,	25,	-1,	3,	-1,	17,	19,	2,	-1,	-1,	14,	5,	-1,	23,	-1,	35,	-1,	13,	-1,	-1|
-1,	2,	-1,	32,	-1,	-1,	-1,	35,	-1,	-1,	24,	10,	-1,	-1,	21,	-1,	-1,	-1,	-1,	4,	31,	22,	34,	-1,	-1,	12,	19,	-1,	-1,	-1,	-1,	3,	-1,	36,	-1,	1|
3,	35,	31,	-1,	-1,	-1,	13,	5,	6,	12,	8,	-1,	-1,	19,	10,	-1,	24,	26,	18,	7,	-1,	28,	-1,	-1,	1,	-1,	15,	20,	25,	-1,	-1,	32,	-1,	14,	17,	33|
19,	-1,	-1,	8,	16,	29,	28,	-1,	-1,	15,	-1,	22,	5,	-1,	-1,	-1,	3,	-1,	26,	20,	-1,	12,	36,	32,	4,	-1,	31,	-1,	13,	-1,	-1,	-1,	-1,	-1,	7,	24|
36,	-1,	27,	-1,	-1,	17,	-1,	16,	19,	3,	-1,	14,	4,	-1,	20,	8,	-1,	34,	6,	-1,	33,	-1,	25,	-1,	-1,	-1,	24,	30,	2,	35,	15,	-1,	-1,	5,	29,	12|
5,	22,	-1,	12,	-1,	25,	-1,	-1,	-1,	7,	26,	-1,	9,	-1,	33,	31,	11,	-1,	-1,	-1,	8,	-1,	10,	16,	-1,	-1,	36,	18,	3,	-1,	-1,	4,	19,	-1,	23,	34|
32,	25,	-1,	13,	19,	-1,	-1,	-1,	-1,	-1,	-1,	-1,	-1,	11,	36,	21,	-1,	-1,	22,	12,	18,	2,	15,	7,	-1,	8,	35,	-1,	23,	-1,	-1,	-1,	29,	33,	-1,	14|
-1,	-1,	12,	15,	34,	28,	1,	-1,	36,	19,	-1,	-1,	-1,	13,	-1,	7,	6,	-1,	-1,	-1,	-1,	-1,	-1,	-1,	14,	-1,	-1,	2,	-1,	18,	-1,	-1,	-1,	22,	35,	31|
-1,	27,	14,	2,	18,	1,	-1,	13,	-1,	23,	28,	-1,	17,	22,	5,	-1,	-1,	-1,	32,	31,	4,	25,	6,	3,	11,	-1,	16,	-1,	-1,	29,	26,	-1,	24,	8,	34,	-1|
-1,	33,	5,	9,	22,	16,	-1,	-1,	-1,	20,	-1,	3,	-1,	28,	8,	-1,	30,	-1,	-1,	34,	26,	35,	-1,	36,	24,	-1,	-1,	-1,	-1,	7,	10,	12,	-1,	-1,	18,	2|
-1,	-1,	23,	6,	3,	-1,	-1,	-1,	-1,	30,	17,	33,	-1,	-1,	-1,	24,	14,	-1,	-1,	-1,	10,	19,	5,	1,	34,	32,	28,	-1,	31,	26,	-1,	36,	13,	9,	-1,	4|
26,	4,	-1,	29,	8,	36,	9,	27,	-1,	10,	7,	11,	35,	-1,	-1,	18,	34,	12,	-1,	21,	30,	33,	28,	-1,	25,	-1,	-1,	17,	-1,	1,	32,	-1,	-1,	6,	-1,	-1|
18,	-1,	36,	-1,	-1,	-1,	-1,	-1,	17,	-1,	-1,	15,	-1,	-1,	11,	33,	-1,	-1,	-1,	-1,	-1,	31,	-1,	-1,	-1,	24,	-1,	-1,	21,	-1,	34,	-1,	4,	20,	25,	26|
-1,	-1,	-1,	33,	23,	26,	-1,	10,	-1,	32,	29,	-1,	15,	9,	-1,	17,	-1,	3,	25,	1,	-1,	-1,	2,	-1,	18,	5,	8,	11,	4,	-1,	12,	13,	-1,	-1,	-1,	21|
25,	10,	-1,	-1,	11,	2,	30,	4,	14,	8,	5,	-1,	-1,	6,	-1,	-1,	-1,	-1,	-1,	36,	-1,	-1,	-1,	-1,	-1,	-1,	20,	-1,	-1,	34,	-1,	31,	9,	15,	-1,	-1|
34,	-1,	19,	20,	21,	-1,	-1,	12,	22,	9,	18,	26,	-1,	1,	14,	27,	-1,	24,	-1,	-1,	23,	8,	13,	-1,	-1,	-1,	30,	-1,	15,	31,	-1,	29,	-1,	-1,	6,	-1|
12,	30,	8,	27,	14,	15,	-1,	-1,	16,	-1,	31,	1,	-1,	4,	26,	-1,	23,	-1,	11,	24,	28,	-1,	-1,	-1,	-1,	-1,	-1,	35,	32,	22,	5,	19,	18,	7,	-1,	-1|
-1,	-1,	-1,	5,	24,	32,	20,	19,	33,	-1,	27,	36,	12,	-1,	31,	35,	25,	10,	15,	-1,	-1,	-1,	16,	30,	-1,	1,	26,	-1,	6,	28,	-1,	11,	22,	17,	-1,	3|];
